1038
13912
22684
5933
2942
6629
5547
6555
16127
3565
17422
31449
17052
16540
31177
8435
16394
22581
10764
12641
30919
32549
1858
3588
12136
3086
8766
11180
14277
1010
14184
9880
30914
11599
21222
1227
18869
8826
4207
5110
4429
4876
13262
6928
17182
3066
21391
26084
2351
28328
497
6951
15058
14131
7717
16230
29890
10155
25318
27268
13194
16037
19748
11345
2596
18711
14592
14706
6110
5806
5557
11711
22457
27418
9562
17060
20234
13154
2497
27898
6834
9376
3158
31391
28119
16386
17488
2517
7495
24207
5344
7825
22165
25927
10123
6718
4788
8982
10433
9884
